c This is QMaxSAT 2017 based on 14.07
c This is Glucose 3.0
c This is MiniSat 2.2.0
c WARNING: for repeatability, setting FPU to use double precision
c card = mrwto, comp = 0, pmodel = 0, narr = 9, mct = 52, verb = 0
cr firstCPXsol 0 0 0
c top = 1525567
c |  Number of variables:    7200                                             |
c |  Number of clauses:      380988                                           |
c |  Weight of hard clauses: 1525567                                          |
c |  Number of soft clauses: 31212                                            |
c |  Number of unit soft clauses: 0                                           |
c |  Maximum Cardinality (by unit): 16835166     (0           )               |
c last restart ## conflicts  :  0 372 
o 5557 | cpuTime 0.033336 s
c Sum of weights = 1870574
c A number of soft clauses remained = 3468
c MRWTO encoding for Pseudo-Boolean Constraints
c sizeMax=5557
c No.0 Divisor=9	generated by pow1
c No.1 Divisor=9	generated by pow1
c No.2 Divisor=9	generated by pow1
c No.3 Divisor=9	generated by pow1
c p0= 9	p1= 9	p2= 9	p3= 9	
c number of digits = 5
c linkingVar[0].size = 9, linkingVar[1].size = 9, linkingVar[2].size = 9, linkingVar[3].size = 8, linkingVar[4].size = 1, 
c Pseudo-Boolean Constraints: 87153 variables and 721527 clauses
c Sum of weights = 1870574
c A number of soft clauses remained = 3468
c MRWTO encoding for Pseudo-Boolean Constraints
c sizeMax=5557
c No.0 Divisor=9	generated by pow1
c No.1 Divisor=9	generated by pow1
c No.2 Divisor=9	generated by pow1
c No.3 Divisor=9	generated by pow1
c p0= 9	p1= 9	p2= 9	p3= 9	
c number of digits = 5
c linkingVar[0].size = 9, linkingVar[1].size = 9, linkingVar[2].size = 9, linkingVar[3].size = 8, linkingVar[4].size = 1, 
c Pseudo-Boolean Constraints: 87153 variables and 721527 clauses
c Sum of weights = 1870574
c A number of soft clauses remained = 3468
c MRWTO encoding for Pseudo-Boolean Constraints
c sizeMax=5557
c No.0 Divisor=9	generated by pow1
c No.1 Divisor=9	generated by pow1
c No.2 Divisor=9	generated by pow1
c No.3 Divisor=9	generated by pow1
c p0= 9	p1= 9	p2= 9	p3= 9	
c number of digits = 5
c linkingVar[0].size = 9, linkingVar[1].size = 9, linkingVar[2].size = 9, linkingVar[3].size = 8, linkingVar[4].size = 1, 
c Pseudo-Boolean Constraints: 87153 variables and 721527 clauses
c Sum of weights = 1870574
c A number of soft clauses remained = 3468
c MRWTO encoding for Pseudo-Boolean Constraints
c sizeMax=5557
c No.0 Divisor=9	generated by pow1
c No.1 Divisor=9	generated by pow1
c No.2 Divisor=9	generated by pow1
c No.3 Divisor=9	generated by pow1
c p0= 9	p1= 9	p2= 9	p3= 9	
c number of digits = 5
c linkingVar[0].size = 9, linkingVar[1].size = 9, linkingVar[2].size = 9, linkingVar[3].size = 8, linkingVar[4].size = 1, 
c Pseudo-Boolean Constraints: 87153 variables and 721527 clauses
c Sum of weights = 1870574
c A number of soft clauses remained = 3468
c MRWTO encoding for Pseudo-Boolean Constraints
c sizeMax=5557
c No.0 Divisor=9	generated by pow1
c No.1 Divisor=9	generated by pow1
c No.2 Divisor=9	generated by pow1
c No.3 Divisor=9	generated by pow1
c p0= 9	p1= 9	p2= 9	p3= 9	
c number of digits = 5
c linkingVar[0].size = 9, linkingVar[1].size = 9, linkingVar[2].size = 9, linkingVar[3].size = 8, linkingVar[4].size = 1, 
c Pseudo-Boolean Constraints: 87153 variables and 721527 clauses
c Sum of weights = 1870574
c A number of soft clauses remained = 3468
c MRWTO encoding for Pseudo-Boolean Constraints
c sizeMax=5557
c No.0 Divisor=9	generated by pow1
c No.1 Divisor=9	generated by pow1
c No.2 Divisor=9	generated by pow1
c No.3 Divisor=9	generated by pow1
c p0= 9	p1= 9	p2= 9	p3= 9	
c number of digits = 5
c linkingVar[0].size = 9, linkingVar[1].size = 9, linkingVar[2].size = 9, linkingVar[3].size = 8, linkingVar[4].size = 1, 
c Pseudo-Boolean Constraints: 87153 variables and 721527 clauses
c Sum of weights = 1870574
c A number of soft clauses remained = 3468
c MRWTO encoding for Pseudo-Boolean Constraints
c sizeMax=5557
c No.0 Divisor=9	generated by pow1
c No.1 Divisor=9	generated by pow1
c No.2 Divisor=9	generated by pow1
c No.3 Divisor=9	generated by pow1
c p0= 9	p1= 9	p2= 9	p3= 9	
c number of digits = 5
c linkingVar[0].size = 9, linkingVar[1].size = 9, linkingVar[2].size = 9, linkingVar[3].size = 8, linkingVar[4].size = 1, 
c Pseudo-Boolean Constraints: 87153 variables and 721527 clauses
c Sum of weights = 1870574
c A number of soft clauses remained = 3468
c MRWTO encoding for Pseudo-Boolean Constraints
c sizeMax=5557
c No.0 Divisor=9	generated by pow1
c No.1 Divisor=9	generated by pow1
c No.2 Divisor=9	generated by pow1
c No.3 Divisor=9	generated by pow1
c p0= 9	p1= 9	p2= 9	p3= 9	
c number of digits = 5
c linkingVar[0].size = 9, linkingVar[1].size = 9, linkingVar[2].size = 9, linkingVar[3].size = 8, linkingVar[4].size = 1, 
c Pseudo-Boolean Constraints: 87153 variables and 721527 clauses
c Sum of weights = 1870574
c A number of soft clauses remained = 3468
c MRWTO encoding for Pseudo-Boolean Constraints
c sizeMax=5557
c No.0 Divisor=9	generated by pow1
c No.1 Divisor=9	generated by pow1
c No.2 Divisor=9	generated by pow1
c No.3 Divisor=9	generated by pow1
c p0= 9	p1= 9	p2= 9	p3= 9	
c number of digits = 5
c linkingVar[0].size = 9, linkingVar[1].size = 9, linkingVar[2].size = 9, linkingVar[3].size = 8, linkingVar[4].size = 1, 
c Pseudo-Boolean Constraints: 87153 variables and 721527 clauses
c last restart ## conflicts  :  369 14308 
o 5232 | cpuTime 63.4136 s
c last restart ## conflicts  :  535 11123 
o 4742 | cpuTime 85.4298 s
c last restart ## conflicts  :  311 8564 
o 4414 | cpuTime 91.7915 s
c last restart ## conflicts  :  203 4559 
o 4329 | cpuTime 299.055 s
c last restart ## conflicts  :  409 9569 
o 4222 | cpuTime 370.842 s
c last restart ## conflicts  :  915 7603 
o 4146 | cpuTime 420.395 s
c last restart ## conflicts  :  352 10740 
o 3967 | cpuTime 796.266 s
s UNKNOWN
c Search is stopped by a limit (maybe time-limit)
cr positiVarArr: [ | 25(1->17) | 117(1->49) | 144(1->16) | 214(1->26) | 291(1->43) | 347(1->39) | 392(1->24) | 458(1->30) | 515(1->27) | 590(2->42) | 640(3->32) | 663(4->1) | 725(5->1) | 833(6->45) | 850(7->2) | 949(8->41) | 1002(9->34) | 1039(10->11) | 1116(11->28) | 1199(12->51) | 1260(13->52) | 1290(14->22) | 1334(15->6) | 1417(16->29) | 1479(17->31) | 1529(18->21) | 1578(19->10) | 1678(20->50) | 1697(21->9) | 1742(22->1) | 1808(23->1) | 1887(24->19) | 1976(25->48) | 2035(26->47) | 2047(27->1) | 2120(28->12) | 2171(29->3) | 2235(30->7) | 2328(31->40) | 2361(32->13) | 2409(33->1) | 2483(34->15) | 2546(35->18) | 2596(36->8) | 2673(37->25) | 2722(38->14) | 2804(39->36) | 2866(40->38) | 2932(41->44) | 2968(42->20) | 3054(43->46) | 3103(44->35) | 3124(45->1) | 3221(46->33) | 3271(47->23) | 3313(48->5) | 3361(49->1) | 3465(50->37) | 3492(51->4) | 3546(52->1) | ]
cr the 1-th chain: [ 1->17->31->40->38->14->22->1 ] (#non-depot=6) {#cumul.=7}
cr the 2-th chain: [ 1->49->1 ] (#non-depot=1) {#cumul.=8}
cr the 3-th chain: [ 1->16->29->3->32->13->52->1 ] (#non-depot=6) {#cumul.=14}
cr the 4-th chain: [ 1->26->47->23->1 ] (#non-depot=3) {#cumul.=17}
cr the 5-th chain: [ 1->43->46->33->1 ] (#non-depot=3) {#cumul.=20}
cr the 6-th chain: [ 1->39->36->8->41->44->35->18->21->9->34->15->6->45->1 ] (#non-depot=13) {#cumul.=33}
cr the 7-th chain: [ 1->24->19->10->11->28->12->51->4->1 ] (#non-depot=8) {#cumul.=41}
cr the 8-th chain: [ 1->30->7->2->42->20->50->37->25->48->5->1 ] (#non-depot=10) {#cumul.=51}
cr the 9-th chain: [ 1->27->1 ] (#non-depot=1) {#cumul.=52}
c Latest Answer = 0 by 8 loops
c restarts              : 36384
c conflicts             : 8131926        (2262 /sec)
c decisions             : 103828791      (0.00 % random) (28878 /sec)
c propagations          : 35190577893    (9787728 /sec)
c conflict literals     : 842511766      (29.95 % deleted)
c Memory used           : 947.00 MB
c CPU time              : 3595.38 s
